c read Graph
c width = 7
c time = 8 ms
c width = 1
c time = 18 ms
c width = 1
c time = 4916 ms
s td 85 2 105
b 1 6 64
b 2 6 68
b 3 6 39
b 4 38 39
b 5 1 38
b 6 2 55
b 7 3
b 8 4 74
b 9 5 96
b 10 40 41
b 11 7 41
b 12 80 81
b 13 7 80
b 14 12 77
b 15 76 77
b 16 7 76
b 17 8
b 18 9 75
b 19 9 57
b 20 10 83
b 21 11
b 22 13 51
b 23 14 58
b 24 15
b 25 72 73
b 26 16 72
b 27 90 91
b 28 16 90
b 29 17 103
b 30 17 52
b 31 84 85
b 32 18 85
b 33 19 34
b 34 19 33
b 35 19 93
b 36 20 87
b 37 21
b 38 22 31
b 39 22 53
b 40 60 61
b 41 23 60
b 42 24 35
b 43 25
b 44 26 27
b 45 28
b 46 29
b 47 30
b 48 32
b 49 36
b 50 37
b 51 42
b 52 43
b 53 44
b 54 45
b 55 46
b 56 47
b 57 48
b 58 49
b 59 50
b 60 54
b 61 56
b 62 59
b 63 62
b 64 63
b 65 65
b 66 66
b 67 67
b 68 69
b 69 70
b 70 71
b 71 78
b 72 79
b 73 82
b 74 86
b 75 88
b 76 89
b 77 92
b 78 94
b 79 95
b 80 97
b 81 98 99
b 82 100 101
b 83 102
b 84 104
b 85 105
1 2
1 3
1 6
1 7
1 8
1 9
1 10
1 17
1 18
1 20
1 21
1 22
1 23
1 24
1 25
1 29
1 31
1 33
1 36
1 37
1 38
1 40
1 42
1 43
1 44
1 45
1 46
1 47
1 48
1 49
1 50
1 51
1 52
1 53
1 54
1 55
1 56
1 57
1 58
1 59
1 60
1 61
1 62
1 63
1 64
1 65
1 66
1 67
1 68
1 69
1 70
1 71
1 72
1 73
1 74
1 75
1 76
1 77
1 78
1 79
1 80
1 81
1 82
1 83
1 84
1 85
3 4
4 5
10 11
11 13
11 16
12 13
14 15
15 16
18 19
25 26
26 28
27 28
29 30
31 32
33 34
33 35
38 39
40 41
